************************************************************************
file with basedata            : md377_.bas
initial value random generator: 710992064
************************************************************************
projects                      :  1
jobs (incl. supersource/sink ):  22
horizon                       :  154
RESOURCES
  - renewable                 :  2   R
  - nonrenewable              :  2   N
  - doubly constrained        :  0   D
************************************************************************
PROJECT INFORMATION:
pronr.  #jobs rel.date duedate tardcost  MPM-Time
    1     20      0       19       11       19
************************************************************************
PRECEDENCE RELATIONS:
jobnr.    #modes  #successors   successors
   1        1          3           2   3   4
   2        3          3           5   6  11
   3        3          2          13  19
   4        3          2           8  16
   5        3          1          15
   6        3          2           7   9
   7        3          3           8  12  14
   8        3          2          13  20
   9        3          1          10
  10        3          3          12  15  16
  11        3          3          12  13  17
  12        3          2          18  20
  13        3          2          15  18
  14        3          3          17  18  19
  15        3          1          21
  16        3          1          19
  17        3          2          20  21
  18        3          1          21
  19        3          1          22
  20        3          1          22
  21        3          1          22
  22        1          0        
************************************************************************
REQUESTS/DURATIONS:
jobnr. mode duration  R 1  R 2  N 1  N 2
------------------------------------------------------------------------
  1      1     0       0    0    0    0
  2      1     3       5    0    6    5
         2     3       0    6    5    4
         3     7       0    5    3    4
  3      1     3       8    0    7    2
         2     5       0    5    6    2
         3     6       7    0    6    2
  4      1     4       0   10    4    9
         2     8       7    0    4    7
         3     9       0    9    2    6
  5      1     3       1    0    3   10
         2     5       0    5    2    8
         3     7       0    2    2    6
  6      1     2       3    0    9   10
         2     9       0    6    9    7
         3    10       2    0    8    6
  7      1     1       9    0    6    9
         2     4       0    5    5    5
         3     7       8    0    5    3
  8      1     5       0    7    6    6
         2     6       8    0    5    6
         3     7       6    0    1    6
  9      1     2       5    0    6    8
         2     7       0    8    3    7
         3    10       0    5    1    5
 10      1     2       8    0    8   10
         2     6       0    4    6    8
         3    10       0    4    4    6
 11      1     1       6    0    8   10
         2     2       6    0    5    9
         3    10       0    8    2    6
 12      1     1       5    0    7    9
         2     2       4    0    7    9
         3     4       3    0    7    7
 13      1     4       0    3    7    5
         2     7       8    0    6    3
         3     8       5    0    5    2
 14      1     1       0    9    8    4
         2     4       0    7    8    3
         3    10       0    5    5    2
 15      1     3       3    0    6    9
         2     3       0    6    7    8
         3     4       0    2    5    8
 16      1     4       0    2   10   10
         2     7       7    0    5   10
         3     9       5    0    2   10
 17      1     3       1    0    3    5
         2     3       6    0    3    3
         3     3       4    0    5    4
 18      1     1       0   10   10    5
         2     2       0    9    9    5
         3     7       0    9    8    5
 19      1     6       6    0   10    9
         2     7       5    0   10    9
         3    10       0    8    9    6
 20      1     2       0    9    3    5
         2     4       7    0    3    5
         3    10       6    0    2    5
 21      1     1       7    0    9    8
         2     3       5    0    8    7
         3     6       4    0    8    5
 22      1     0       0    0    0    0
************************************************************************
RESOURCEAVAILABILITIES:
  R 1  R 2  N 1  N 2
   10   15  139  148
************************************************************************
MAXIMAL LAGS:
from  to  type  delay
    1   12   ES      0
    1    2   ES      0
    2   12   ES      0
    1    3   ES      0
    3   12   ES      0
    1    4   ES      0
    4   12   ES      0
    1    5   ES      0
    5   12   ES      0
    1    6   ES      0
    6   12   ES      0
    1    7   ES      0
    7   12   ES      0
    1    8   ES      0
    8   12   ES      0
    1    9   ES      0
    9   12   ES      0
    1   10   ES      0
   10   12   ES      0
    1   11   ES      0
   11   12   ES      0
    1   12   ES      0
    2    5   SS      6
    2    5   SE     -7
    2    5   ES     12
    2    5   EE     11
    2    6   SS     12
    2    6   SE     -6
    2    6   ES     -9
    2    6   EE      6
    2   11   SS     -1
    2   11   SE    -11
    2   11   ES      3
    2   11   EE      5
    3   13   SS      3
    3   13   SE     -5
    3   13   ES    -12
    3   13   EE     -2
    3   19   SS      9
    3   19   SE     -6
    3   19   ES      6
    3   19   EE    -12
    4    8   SS    -11
    4    8   SE     -5
    4    8   ES     12
    4    8   EE     -4
    4   16   SS      8
    4   16   SE     11
    4   16   ES     12
    4   16   EE      8
    5   15   SS     -6
    5   15   SE     -7
    5   15   ES     11
    5   15   EE      7
    6    7   SS     -7
    6    7   SE      0
    6    7   ES     -8
    6    7   EE    -12
    6    9   SS     -2
    6    9   SE      9
    6    9   ES     -1
    6    9   EE     12
    7    8   SS     10
    7    8   SE     -1
    7    8   ES     10
    7    8   EE     -1
    7   14   SS     11
    7   14   SE      0
    7   14   ES     -8
    7   14   EE      4
    8   13   SS     -3
    8   13   SE      7
    8   13   ES      3
    8   13   EE     -1
    8   20   SS      0
    8   20   SE     -1
    8   20   ES     11
    8   20   EE      2
    9   10   SS      5
    9   10   SE     10
    9   10   ES     -5
    9   10   EE     -5
   10   15   SS      7
   10   15   SE     -5
   10   15   ES      7
   10   15   EE      6
   10   16   SS     12
   10   16   SE     -3
   10   16   ES     -6
   10   16   EE    -10
   11   13   SS    -12
   11   13   SE      6
   11   13   ES      9
   11   13   EE     -1
   11   17   SS    -10
   11   17   SE      5
   11   17   ES      4
   11   17   EE      4
   12   18   SS     -1
   12   18   SE     12
   12   18   ES      2
   12   18   EE      5
   12   20   SS      2
   12   20   SE      4
   12   20   ES     -7
   12   20   EE      4
   13   15   SS    -12
   13   15   SE      9
   13   15   ES      6
   13   15   EE     -2
   13   18   SS      3
   13   18   SE     -7
   13   18   ES     11
   13   18   EE      4
   14   17   SS     -5
   14   17   SE      7
   14   17   ES      2
   14   17   EE      4
   14   18   SS     -6
   14   18   SE    -12
   14   18   ES      9
   14   18   EE    -10
   14   19   SS      5
   14   19   SE      7
   14   19   ES      5
   14   19   EE      1
   15   21   SS     -1
   15   21   SE      8
   15   21   ES      8
   15   21   EE      6
   16   19   SS     12
   16   19   SE      9
   16   19   ES      4
   16   19   EE     -3
   17   20   SS      0
   17   20   SE     12
   17   20   ES      8
   17   20   EE     10
   17   21   SS     11
   17   21   SE    -12
   17   21   ES      2
   17   21   EE     12
   18   21   SS     -3
   18   21   SE     -2
   18   21   ES      1
   18   21   EE     -7
   19   22   SS      9
   19   22   SE     -2
   19   22   ES      9
   19   22   EE     11
   20   22   SS      0
   20   22   SE      8
   20   22   ES      2
   20   22   EE    -12
   21   22   SS     -6
   21   22   SE     -7
   21   22   ES      2
   21   22   EE     -9
************************************************************************
